c Result of efficient AIG-to-CNF conversion using package CNF
p cnf 481 1687
2 3 -253 0
2 -3 253 0
-2 -3 -253 0
-2 3 253 0
3 444 -4 228 0
3 -444 228 -239 0
-3 -228 0
-3 -444 239 0
-3 444 4 0
4 -445 -5 0
4 445 167 -198 0
-4 445 198 0
-4 -445 5 0
-4 445 -167 0
5 446 -6 0
5 -446 -143 156 0
-5 -446 143 0
-5 446 6 0
-5 -446 -156 0
6 447 -7 0
6 -447 -119 0
-6 -447 119 0
-6 447 7 0
7 448 8 -19 0
7 -448 8 -96 0
-7 -8 0
-7 -448 96 0
-7 448 19 0
-8 9 15 17 18 0
8 -18 0
8 -9 0
8 -17 0
8 -15 0
-9 473 474 10 12 0
9 -473 0
9 -12 0
9 -10 0
9 -474 0
-10 465 471 472 11 0
10 -11 0
10 -472 0
10 -465 0
10 -471 0
-11 469 470 475 0
11 -469 0
11 -475 0
11 -470 0
-12 461 462 13 14 0
12 -461 0
12 -14 0
12 -13 0
12 -462 0
-13 466 467 468 0
13 -466 0
13 -468 0
13 -467 0
-14 457 458 463 464 0
14 -464 0
14 -463 0
14 -457 0
14 -458 0
-15 455 459 460 16 0
15 -16 0
15 -460 0
15 -455 0
15 -459 0
-16 453 454 0
16 -453 0
16 -454 0
-17 449 456 0
17 -449 0
17 -456 0
-18 450 451 452 0
18 -450 0
18 -452 0
18 -451 0
-19 -476 74 0
-19 476 20 0
19 476 -20 0
19 -476 -74 0
20 -477 -21 0
20 477 -59 0
-20 477 59 0
-20 -477 21 0
21 478 -22 0
21 -478 -48 0
-21 -478 48 0
-21 478 22 0
22 479 -23 0
22 -479 -43 0
-22 -479 43 0
-22 479 23 0
23 480 -24 0
23 -480 -41 0
-23 -480 41 0
-23 480 24 0
24 -431 25 0
24 431 -25 0
-24 431 25 0
-24 -431 -25 0
-25 432 26 0
25 -432 0
25 -26 0
-26 433 27 0
26 -433 0
26 -27 0
-27 434 28 0
27 -434 0
27 -28 0
-28 435 29 0
28 -435 0
28 -29 0
-29 436 30 0
29 -436 0
29 -30 0
-30 437 31 0
30 -437 0
30 -31 0
-31 438 32 0
31 -438 0
31 -32 0
-32 439 33 0
32 -439 0
32 -33 0
-33 440 34 0
33 -440 0
33 -34 0
-34 441 35 0
34 -441 0
34 -35 0
-35 442 36 0
35 -442 0
35 -36 0
-36 443 37 0
36 -443 0
36 -37 0
-37 444 38 0
37 -444 0
37 -38 0
-38 445 39 0
38 -445 0
38 -39 0
-39 446 40 0
39 -446 0
39 -40 0
-40 447 448 0
40 -447 0
40 -448 0
41 -430 42 0
41 430 -42 0
-41 430 42 0
-41 -430 -42 0
-42 431 25 0
42 -431 0
42 -25 0
43 480 -44 0
43 -480 -46 0
-43 -480 46 0
-43 480 44 0
44 -429 45 0
44 429 -45 0
-44 429 45 0
-44 -429 -45 0
-45 430 42 0
45 -430 0
45 -42 0
46 -428 47 0
46 428 -47 0
-46 428 47 0
-46 -428 -47 0
-47 429 45 0
47 -429 0
47 -45 0
48 479 -49 0
48 -479 -54 0
-48 -479 54 0
-48 479 49 0
49 480 -50 0
49 -480 -52 0
-49 -480 52 0
-49 480 50 0
50 -427 51 0
50 427 -51 0
-50 427 51 0
-50 -427 -51 0
-51 428 47 0
51 -428 0
51 -47 0
52 -426 53 0
52 426 -53 0
-52 426 53 0
-52 -426 -53 0
-53 427 51 0
53 -427 0
53 -51 0
54 480 -55 0
54 -480 -57 0
-54 -480 57 0
-54 480 55 0
55 -425 56 0
55 425 -56 0
-55 425 56 0
-55 -425 -56 0
-56 426 53 0
56 -426 0
56 -53 0
57 -424 58 0
57 424 -58 0
-57 424 58 0
-57 -424 -58 0
-58 425 56 0
58 -425 0
58 -56 0
59 478 -60 0
59 -478 -67 0
-59 -478 67 0
-59 478 60 0
60 479 -61 0
60 -479 -64 0
-60 -479 64 0
-60 479 61 0
61 480 -62 0
61 -480 -63 0
-61 -480 63 0
-61 480 62 0
62 -439 33 0
62 439 -33 0
-62 439 33 0
-62 -439 -33 0
63 -438 32 0
63 438 -32 0
-63 438 32 0
-63 -438 -32 0
64 480 -65 0
64 -480 -66 0
-64 -480 66 0
-64 480 65 0
65 -437 31 0
65 437 -31 0
-65 437 31 0
-65 -437 -31 0
66 -436 30 0
66 436 -30 0
-66 436 30 0
-66 -436 -30 0
67 479 -68 0
67 -479 -71 0
-67 -479 71 0
-67 479 68 0
68 480 -69 0
68 -480 -70 0
-68 -480 70 0
-68 480 69 0
69 -435 29 0
69 435 -29 0
-69 435 29 0
-69 -435 -29 0
70 -434 28 0
70 434 -28 0
-70 434 28 0
-70 -434 -28 0
71 480 -72 0
71 -480 -73 0
-71 -480 73 0
-71 480 72 0
72 -433 27 0
72 433 -27 0
-72 433 27 0
-72 -433 -27 0
73 -432 26 0
73 432 -26 0
-73 432 26 0
-73 -432 -26 0
74 477 -75 0
-74 -477 0
-74 75 0
75 478 -76 0
75 -478 -87 0
-75 -478 87 0
-75 478 76 0
76 479 -77 0
76 -479 -82 0
-76 -479 82 0
-76 479 77 0
77 480 -78 0
77 -480 -80 0
-77 -480 80 0
-77 480 78 0
78 -423 79 0
78 423 -79 0
-78 423 79 0
-78 -423 -79 0
-79 424 58 0
79 -424 0
79 -58 0
80 -422 81 0
80 422 -81 0
-80 422 81 0
-80 -422 -81 0
-81 423 79 0
81 -423 0
81 -79 0
82 480 -83 0
82 -480 -85 0
-82 -480 85 0
-82 480 83 0
83 -421 84 0
83 421 -84 0
-83 421 84 0
-83 -421 -84 0
-84 422 81 0
84 -422 0
84 -81 0
85 -420 86 0
85 420 -86 0
-85 420 86 0
-85 -420 -86 0
-86 421 84 0
86 -421 0
86 -84 0
87 479 -88 0
87 -479 -93 0
-87 -479 93 0
-87 479 88 0
88 480 -89 0
88 -480 -91 0
-88 -480 91 0
-88 480 89 0
89 -419 90 0
89 419 -90 0
-89 419 90 0
-89 -419 -90 0
-90 420 86 0
90 -420 0
90 -86 0
91 -418 92 0
91 418 -92 0
-91 418 92 0
-91 -418 -92 0
-92 419 90 0
92 -419 0
92 -90 0
93 480 -94 0
-93 -480 0
-93 94 0
-94 417 95 0
-94 -417 -95 0
94 -417 95 0
94 417 -95 0
-95 418 92 0
95 -418 0
95 -92 0
-96 -476 112 0
-96 476 97 0
96 476 -97 0
96 -476 -112 0
97 -477 -98 0
97 477 -105 0
-97 477 105 0
-97 -477 98 0
98 478 -99 0
98 -478 -102 0
-98 -478 102 0
-98 478 99 0
99 479 -100 0
99 -479 -101 0
-99 -479 101 0
-99 479 100 0
100 480 -41 0
100 -480 -44 0
-100 -480 44 0
-100 480 41 0
101 480 -46 0
101 -480 -50 0
-101 -480 50 0
-101 480 46 0
102 479 -103 0
102 -479 -104 0
-102 -479 104 0
-102 479 103 0
103 480 -52 0
103 -480 -55 0
-103 -480 55 0
-103 480 52 0
104 480 -57 0
104 -480 -78 0
-104 -480 78 0
-104 480 57 0
105 478 -106 0
105 -478 -109 0
-105 -478 109 0
-105 478 106 0
106 479 -107 0
106 -479 -108 0
-106 -479 108 0
-106 479 107 0
107 480 -63 0
107 -480 -65 0
-107 -480 65 0
-107 480 63 0
108 480 -66 0
108 -480 -69 0
-108 -480 69 0
-108 480 66 0
109 479 -110 0
109 -479 -111 0
-109 -479 111 0
-109 479 110 0
110 480 -70 0
110 -480 -72 0
-110 -480 72 0
-110 480 70 0
111 -480 -24 0
111 480 -73 0
-111 480 73 0
-111 -480 24 0
112 477 -113 0
-112 -477 0
-112 113 0
113 478 -114 0
113 -478 -117 0
-113 -478 117 0
-113 478 114 0
114 479 -115 0
114 -479 -116 0
-114 -479 116 0
-114 479 115 0
115 480 -80 0
115 -480 -83 0
-115 -480 83 0
-115 480 80 0
116 480 -85 0
116 -480 -89 0
-116 -480 89 0
-116 480 85 0
117 479 -118 0
-117 -479 0
-117 118 0
118 480 -91 0
118 -480 -94 0
-118 -480 94 0
-118 480 91 0
119 448 8 -120 0
119 -448 8 -132 0
-119 -8 0
-119 -448 132 0
-119 448 120 0
-120 -476 128 0
-120 476 121 0
120 476 -121 0
120 -476 -128 0
121 -477 -122 0
121 477 -125 0
-121 477 125 0
-121 -477 122 0
122 478 -123 0
122 -478 -124 0
-122 -478 124 0
-122 478 123 0
123 479 -43 0
123 -479 -49 0
-123 -479 49 0
-123 479 43 0
124 479 -54 0
124 -479 -77 0
-124 -479 77 0
-124 479 54 0
125 478 -126 0
125 -478 -127 0
-125 -478 127 0
-125 478 126 0
126 479 -64 0
126 -479 -68 0
-126 -479 68 0
-126 479 64 0
127 -479 -23 0
127 479 -71 0
-127 479 71 0
-127 -479 23 0
128 477 -129 0
-128 -477 0
-128 129 0
129 478 -130 0
129 -478 -131 0
-129 -478 131 0
-129 478 130 0
130 479 -82 0
130 -479 -88 0
-130 -479 88 0
-130 479 82 0
131 479 -93 0
-131 -479 0
-131 93 0
-132 -476 140 0
-132 476 133 0
132 476 -133 0
132 -476 -140 0
133 -477 -134 0
133 477 -137 0
-133 477 137 0
-133 -477 134 0
134 478 -135 0
134 -478 -136 0
-134 -478 136 0
-134 478 135 0
135 479 -101 0
135 -479 -103 0
-135 -479 103 0
-135 479 101 0
136 479 -104 0
136 -479 -115 0
-136 -479 115 0
-136 479 104 0
137 478 -138 0
137 -478 -139 0
-137 -478 139 0
-137 478 138 0
138 479 -108 0
138 -479 -110 0
-138 -479 110 0
-138 479 108 0
139 -479 -100 0
139 479 -111 0
-139 479 111 0
-139 -479 100 0
140 477 -141 0
-140 -477 0
-140 141 0
141 478 -142 0
-141 -478 0
-141 142 0
142 479 -116 0
142 -479 -118 0
-142 -479 118 0
-142 479 116 0
-143 447 -448 150 0
-143 447 448 144 0
143 -447 0
143 -448 -150 0
143 448 -144 0
144 -476 8 -148 0
144 476 8 -145 0
-144 -8 0
-144 -476 148 0
-144 476 145 0
145 -477 -146 0
145 477 -147 0
-145 477 147 0
-145 -477 146 0
146 478 -48 0
146 -478 -76 0
-146 -478 76 0
-146 478 48 0
147 -478 -22 0
147 478 -67 0
-147 478 67 0
-147 -478 22 0
148 477 -149 0
-148 -477 0
-148 149 0
149 478 -87 0
-149 -478 0
-149 87 0
150 -476 8 -154 0
150 476 8 -151 0
-150 -8 0
-150 -476 154 0
-150 476 151 0
151 477 -152 0
151 -477 -153 0
-151 -477 153 0
-151 477 152 0
152 -478 -99 0
152 478 -109 0
-152 478 109 0
-152 -478 99 0
153 478 -102 0
153 -478 -114 0
-153 -478 114 0
-153 478 102 0
154 477 -155 0
-154 -477 0
-154 155 0
155 478 -117 0
-155 -478 0
-155 117 0
156 -447 -448 163 0
156 -447 448 157 0
-156 447 0
-156 -448 -163 0
-156 448 -157 0
157 -476 8 -161 0
157 476 8 -158 0
-157 -8 0
-157 -476 161 0
-157 476 158 0
158 477 -159 0
158 -477 -160 0
-158 -477 160 0
-158 477 159 0
159 -478 -123 0
159 478 -127 0
-159 478 127 0
-159 -478 123 0
160 478 -124 0
160 -478 -130 0
-160 -478 130 0
-160 478 124 0
161 477 -162 0
-161 -477 0
-161 162 0
162 478 -131 0
-162 -478 0
-162 131 0
163 -477 164 -166 0
163 477 164 -165 0
-163 -164 0
-163 -477 166 0
-163 477 165 0
-164 476 8 0
164 -476 0
164 -8 0
165 -478 -135 0
165 478 -139 0
-165 478 139 0
-165 -478 135 0
166 478 -136 0
166 -478 -142 0
-166 -478 142 0
-166 478 136 0
167 -446 -447 187 0
167 -446 447 168 0
-167 446 0
-167 -447 -187 0
-167 447 -168 0
168 -448 8 -180 0
168 448 8 -169 0
-168 -8 0
-168 -448 180 0
-168 448 169 0
-169 476 172 0
-169 -476 170 0
-169 476 -171 0
169 -476 -170 0
169 476 171 -172 0
170 477 -146 0
170 -477 -149 0
-170 -477 149 0
-170 477 146 0
171 -477 147 0
-171 477 0
-171 -147 0
-172 477 -478 60 0
-172 477 478 173 0
172 -477 0
172 -478 -60 0
172 478 -173 0
173 479 -174 0
173 -479 -177 0
-173 -479 177 0
-173 479 174 0
174 480 -175 0
174 -480 -176 0
-174 -480 176 0
-174 480 175 0
175 -443 37 0
175 443 -37 0
-175 443 37 0
-175 -443 -37 0
176 -442 36 0
176 442 -36 0
-176 442 36 0
-176 -442 -36 0
177 480 -178 0
177 -480 -179 0
-177 -480 179 0
-177 480 178 0
178 -441 35 0
178 441 -35 0
-178 441 35 0
-178 -441 -35 0
179 -440 34 0
179 440 -34 0
-179 440 34 0
-179 -440 -34 0
180 -476 -181 0
180 476 -186 0
180 476 -182 0
-180 -476 181 0
-180 476 182 186 0
181 477 -153 0
181 -477 -155 0
-181 -477 155 0
-181 477 153 0
182 477 478 -183 0
182 477 -478 -106 0
-182 -477 0
-182 -478 106 0
-182 478 183 0
183 479 -184 0
183 -479 -185 0
-183 -479 185 0
-183 479 184 0
184 480 -176 0
184 -480 -178 0
-184 -480 178 0
-184 480 176 0
185 -480 -62 0
185 480 -179 0
-185 480 179 0
-185 -480 62 0
186 -477 -152 0
-186 477 0
-186 152 0
187 448 8 -188 0
187 -448 8 -193 0
-187 -8 0
-187 -448 193 0
-187 448 188 0
188 -476 -189 0
188 476 -192 0
188 476 -190 0
-188 -476 189 0
-188 476 190 192 0
189 477 -160 0
189 -477 -162 0
-189 -477 162 0
-189 477 160 0
190 477 478 -191 0
190 477 -478 -126 0
-190 -477 0
-190 -478 126 0
-190 478 191 0
191 -479 -61 0
191 479 -177 0
-191 479 177 0
-191 -479 61 0
192 -477 -159 0
-192 477 0
-192 159 0
-193 -476 197 0
-193 476 194 0
193 476 -194 0
193 -476 -197 0
194 -477 -165 0
194 477 -195 0
-194 477 195 0
-194 -477 165 0
195 -478 -138 0
195 478 -196 0
-195 478 196 0
-195 -478 138 0
196 -479 -107 0
196 479 -185 0
-196 479 185 0
-196 -479 107 0
197 477 -166 0
-197 -477 0
-197 166 0
-198 446 -208 0
-198 446 40 199 0
198 -446 0
198 -40 208 0
198 -199 208 0
199 476 8 -201 0
199 -476 8 -200 0
-199 -8 0
-199 -476 200 0
-199 476 201 0
200 477 -21 0
200 -477 -75 0
-200 -477 75 0
-200 477 21 0
201 -477 -59 0
201 477 -207 0
201 477 -202 0
-201 -477 59 0
-201 477 202 207 0
202 478 -479 -205 0
202 478 479 -203 0
-202 -478 0
-202 -479 205 0
-202 479 203 0
203 -480 -204 0
203 447 -448 480 0
203 -447 448 480 0
-203 -480 204 0
-203 -447 -448 480 0
-203 447 448 480 0
204 -446 40 0
204 446 -40 0
-204 446 40 0
-204 -446 -40 0
205 -480 -206 0
205 -445 480 39 0
205 445 480 -39 0
-205 -480 206 0
-205 -445 480 -39 0
-205 445 480 39 0
206 -444 38 0
206 444 -38 0
-206 444 38 0
-206 -444 -38 0
207 -478 -173 0
-207 478 0
-207 173 0
-208 447 -221 0
-208 -447 -209 0
-208 447 448 0
208 -447 209 0
208 447 -448 221 0
209 448 8 -210 0
209 -448 8 -215 0
-209 -8 0
-209 -448 215 0
-209 448 210 0
-210 476 213 0
-210 -476 211 0
-210 476 -212 0
210 -476 -211 0
210 476 212 -213 0
211 477 -122 0
211 -477 -129 0
-211 -477 129 0
-211 477 122 0
212 -477 125 0
-212 477 0
-212 -125 0
-213 477 -478 191 0
-213 477 478 214 0
213 -477 0
213 -478 -191 0
213 478 -214 0
214 -479 -174 0
214 479 -205 0
-214 479 205 0
-214 -479 174 0
-215 476 218 0
-215 -476 216 0
-215 476 -217 0
215 -476 -216 0
215 476 217 -218 0
216 477 -134 0
216 -477 -141 0
-216 -477 141 0
-216 477 134 0
217 -477 137 0
-217 477 0
-217 -137 0
-218 477 -478 196 0
-218 477 478 219 0
218 -477 0
218 -478 -196 0
218 478 -219 0
219 -479 -184 0
219 479 -220 0
-219 479 220 0
-219 -479 184 0
220 -480 -175 0
220 480 -206 0
-220 480 206 0
-220 -480 175 0
221 476 8 -223 0
221 -476 8 -222 0
-221 -8 0
-221 -476 222 0
-221 476 223 0
222 477 -98 0
222 -477 -113 0
-222 -477 113 0
-222 477 98 0
223 -477 -105 0
223 477 -227 0
223 477 -224 0
-223 -477 105 0
-223 477 224 227 0
224 478 479 -225 0
224 478 -479 -220 0
-224 -478 0
-224 -479 220 0
-224 479 225 0
225 -480 -226 0
225 -446 480 40 0
225 446 480 -40 0
-225 -480 226 0
-225 -446 480 -40 0
-225 446 480 40 0
226 -445 39 0
226 445 -39 0
-226 445 39 0
-226 -445 -39 0
227 -478 -183 0
-227 478 0
-227 183 0
-228 229 235 237 238 0
228 -238 0
228 -229 0
228 -237 0
228 -235 0
-229 441 442 230 232 0
229 -441 0
229 -232 0
229 -230 0
229 -442 0
-230 433 439 440 231 0
230 -231 0
230 -440 0
230 -433 0
230 -439 0
-231 437 438 443 0
231 -437 0
231 -443 0
231 -438 0
-232 434 435 436 233 0
232 -233 0
232 -436 0
232 -434 0
232 -435 0
-233 429 430 234 0
233 -234 0
233 -430 0
233 -429 0
-234 425 426 431 432 0
234 -432 0
234 -431 0
234 -425 0
234 -426 0
-235 423 427 428 236 0
235 -236 0
235 -428 0
235 -423 0
235 -427 0
-236 421 422 0
236 -421 0
236 -422 0
-237 417 424 0
237 -417 0
237 -424 0
-238 418 419 420 0
238 -418 0
238 -420 0
238 -419 0
239 445 -240 0
239 -445 -247 250 0
-239 -445 247 0
-239 445 240 0
-239 -445 -250 0
240 446 -241 0
240 -446 -244 0
-240 -446 244 0
-240 446 241 0
241 447 -242 0
241 -447 -243 0
-241 -447 243 0
-241 447 242 0
242 -448 164 -222 0
242 448 164 -200 0
-242 -164 0
-242 -448 222 0
-242 448 200 0
243 -448 164 -216 0
243 448 164 -211 0
-243 -164 0
-243 -448 216 0
-243 448 211 0
244 447 -245 0
244 -447 -246 0
-244 -447 246 0
-244 447 245 0
245 -448 164 -181 0
245 448 164 -170 0
-245 -164 0
-245 -448 181 0
-245 448 170 0
246 -448 164 -197 0
246 448 164 -189 0
-246 -164 0
-246 -448 197 0
-246 448 189 0
-247 446 -447 249 0
-247 446 447 248 0
247 -446 0
247 -447 -249 0
247 447 -248 0
248 448 -74 164 0
248 -448 -112 164 0
-248 -164 0
-248 -448 112 0
-248 448 74 0
249 448 -128 164 0
249 -448 -140 164 0
-249 -164 0
-249 -448 140 0
-249 448 128 0
250 -446 -447 252 0
250 -446 447 251 0
-250 446 0
-250 -447 -252 0
-250 447 -251 0
251 448 -148 164 0
251 -448 -154 164 0
-251 -164 0
-251 -448 154 0
-251 448 148 0
252 448 -161 164 0
-252 -164 0
-252 161 0
-252 -448 0
253 -476 8 -405 0
253 476 8 -254 0
-253 -8 0
-253 -476 405 0
-253 476 254 0
254 477 -255 0
254 -477 -377 392 0
-254 -477 377 0
-254 477 255 0
-254 -477 -392 0
255 478 -256 0
255 -478 -347 0
-255 -478 347 0
-255 478 256 0
256 479 -257 0
256 -479 -317 0
-256 -479 317 0
-256 479 257 0
257 480 228 -258 0
257 -480 228 -288 0
-257 -228 0
-257 -480 288 0
-257 480 258 0
-258 444 274 0
-258 -444 259 0
258 -444 -259 0
258 444 -274 0
259 445 -260 0
259 -445 -267 0
-259 -445 267 0
-259 445 260 0
260 446 -261 0
260 -446 -264 0
-260 -446 264 0
-260 446 261 0
261 447 -262 0
261 -447 -263 0
-261 -447 263 0
-261 447 262 0
262 448 -24 0
262 -448 -41 0
-262 -448 41 0
-262 448 24 0
263 448 -44 0
263 -448 -46 0
-263 -448 46 0
-263 448 44 0
264 447 -265 0
264 -447 -266 0
-264 -447 266 0
-264 447 265 0
265 448 -50 0
265 -448 -52 0
-265 -448 52 0
-265 448 50 0
266 448 -55 0
266 -448 -57 0
-266 -448 57 0
-266 448 55 0
267 446 -268 0
267 -446 -271 0
-267 -446 271 0
-267 446 268 0
268 447 -269 0
268 -447 -270 0
-268 -447 270 0
-268 447 269 0
269 448 -78 0
269 -448 -80 0
-269 -448 80 0
-269 448 78 0
270 448 -83 0
270 -448 -85 0
-270 -448 85 0
-270 448 83 0
271 447 -272 0
271 -447 -273 0
-271 -447 273 0
-271 447 272 0
272 448 -89 0
272 -448 -91 0
-272 -448 91 0
-272 448 89 0
273 448 -94 0
-273 -448 0
-273 94 0
274 -445 -275 0
274 445 -284 0
274 445 -282 0
-274 -445 275 0
-274 445 282 284 0
275 446 -276 0
275 -446 -279 0
-275 -446 279 0
-275 446 276 0
276 447 -277 0
276 -447 -278 0
-276 -447 278 0
-276 447 277 0
277 448 -62 0
277 -448 -63 0
-277 -448 63 0
-277 448 62 0
278 448 -65 0
278 -448 -66 0
-278 -448 66 0
-278 448 65 0
279 447 -280 0
279 -447 -281 0
-279 -447 281 0
-279 447 280 0
280 448 -69 0
280 -448 -70 0
-280 -448 70 0
-280 448 69 0
281 448 -72 0
281 -448 -73 0
-281 -448 73 0
-281 448 72 0
282 446 -447 -283 0
282 446 447 -448 0
-282 -446 0
-282 -447 283 0
-282 447 448 0
283 -448 -206 0
283 -445 448 39 0
283 445 448 -39 0
-283 -448 206 0
-283 -445 448 -39 0
-283 445 448 39 0
284 -446 -285 0
-284 446 0
-284 285 0
285 447 -286 0
285 -447 -287 0
-285 -447 287 0
-285 447 286 0
286 448 -175 0
286 -448 -176 0
-286 -448 176 0
-286 448 175 0
287 448 -178 0
287 -448 -179 0
-287 -448 179 0
-287 448 178 0
-288 444 303 0
-288 -444 289 0
288 -444 -289 0
288 444 -303 0
289 445 -290 0
289 -445 -297 0
-289 -445 297 0
-289 445 290 0
290 446 -291 0
290 -446 -294 0
-290 -446 294 0
-290 446 291 0
291 447 -292 0
291 -447 -293 0
-291 -447 293 0
-291 447 292 0
292 448 -41 0
292 -448 -44 0
-292 -448 44 0
-292 448 41 0
293 448 -46 0
293 -448 -50 0
-293 -448 50 0
-293 448 46 0
294 447 -295 0
294 -447 -296 0
-294 -447 296 0
-294 447 295 0
295 448 -52 0
295 -448 -55 0
-295 -448 55 0
-295 448 52 0
296 448 -57 0
296 -448 -78 0
-296 -448 78 0
-296 448 57 0
297 446 -298 0
297 -446 -301 0
-297 -446 301 0
-297 446 298 0
298 447 -299 0
298 -447 -300 0
-298 -447 300 0
-298 447 299 0
299 448 -80 0
299 -448 -83 0
-299 -448 83 0
-299 448 80 0
300 448 -85 0
300 -448 -89 0
-300 -448 89 0
-300 448 85 0
301 447 -302 0
-301 -447 0
-301 302 0
302 448 -91 0
302 -448 -94 0
-302 -448 94 0
-302 448 91 0
303 -445 -304 0
303 445 -313 0
303 445 -311 0
-303 -445 304 0
-303 445 311 313 0
304 446 -305 0
304 -446 -308 0
-304 -446 308 0
-304 446 305 0
305 447 -306 0
305 -447 -307 0
-305 -447 307 0
-305 447 306 0
306 448 -63 0
306 -448 -65 0
-306 -448 65 0
-306 448 63 0
307 448 -66 0
307 -448 -69 0
-307 -448 69 0
-307 448 66 0
308 447 -309 0
308 -447 -310 0
-308 -447 310 0
-308 447 309 0
309 448 -70 0
309 -448 -72 0
-309 -448 72 0
-309 448 70 0
310 -448 -24 0
310 448 -73 0
-310 448 73 0
-310 -448 24 0
311 446 -447 -312 0
311 446 447 -448 0
-311 -446 0
-311 -447 312 0
-311 447 448 0
312 -448 -175 0
312 448 -206 0
-312 448 206 0
-312 -448 175 0
313 -446 -314 0
-313 446 0
-313 314 0
314 447 -315 0
314 -447 -316 0
-314 -447 316 0
-314 447 315 0
315 448 -176 0
315 -448 -178 0
-315 -448 178 0
-315 448 176 0
316 -448 -62 0
316 448 -179 0
-316 448 179 0
-316 -448 62 0
317 480 228 -318 0
317 -480 228 -333 0
-317 -228 0
-317 -480 333 0
-317 480 318 0
-318 444 330 0
-318 -444 319 0
-318 444 -326 0
318 -444 -319 0
318 444 326 -330 0
319 445 -320 0
319 -445 -323 0
-319 -445 323 0
-319 445 320 0
320 446 -321 0
320 -446 -322 0
-320 -446 322 0
-320 446 321 0
321 447 -263 0
321 -447 -265 0
-321 -447 265 0
-321 447 263 0
322 447 -266 0
322 -447 -269 0
-322 -447 269 0
-322 447 266 0
323 446 -324 0
323 -446 -325 0
-323 -446 325 0
-323 446 324 0
324 447 -270 0
324 -447 -272 0
-324 -447 272 0
-324 447 270 0
325 447 -273 0
-325 -447 0
-325 273 0
326 -445 327 0
-326 445 0
-326 -327 0
327 446 -328 0
327 -446 -329 0
-327 -446 329 0
-327 446 328 0
328 447 -278 0
328 -447 -280 0
-328 -447 280 0
-328 447 278 0
329 -447 -262 0
329 447 -281 0
-329 447 281 0
-329 -447 262 0
-330 445 -446 332 0
-330 445 446 331 0
330 -445 0
330 -446 -332 0
330 446 -331 0
331 447 -283 0
331 -447 -286 0
-331 -447 286 0
-331 447 283 0
332 -447 -277 0
332 447 -287 0
-332 447 287 0
-332 -447 277 0
-333 444 344 0
-333 -444 334 0
-333 444 -340 0
333 -444 -334 0
333 444 340 -344 0
334 445 -335 0
334 -445 -338 0
-334 -445 338 0
-334 445 335 0
335 446 -336 0
335 -446 -337 0
-335 -446 337 0
-335 446 336 0
336 447 -293 0
336 -447 -295 0
-336 -447 295 0
-336 447 293 0
337 447 -296 0
337 -447 -299 0
-337 -447 299 0
-337 447 296 0
338 446 -339 0
-338 -446 0
-338 339 0
339 447 -300 0
339 -447 -302 0
-339 -447 302 0
-339 447 300 0
340 -445 341 0
-340 445 0
-340 -341 0
341 446 -342 0
341 -446 -343 0
-341 -446 343 0
-341 446 342 0
342 447 -307 0
342 -447 -309 0
-342 -447 309 0
-342 447 307 0
343 -447 -292 0
343 447 -310 0
-343 447 310 0
-343 -447 292 0
-344 445 -446 345 0
-344 445 446 346 0
344 -445 0
344 -446 -345 0
344 446 -346 0
345 -447 -306 0
345 447 -316 0
-345 447 316 0
-345 -447 306 0
346 447 -312 0
346 -447 -315 0
-346 -447 315 0
-346 447 312 0
347 479 -348 0
347 -479 -363 0
-347 -479 363 0
-347 479 348 0
348 -480 228 -356 0
348 480 228 -349 0
-348 -228 0
-348 -480 356 0
-348 480 349 0
-349 444 355 0
-349 -444 350 0
-349 444 -353 0
349 -444 -350 0
349 444 353 -355 0
350 445 -351 0
350 -445 -352 0
-350 -445 352 0
-350 445 351 0
351 446 -264 0
351 -446 -268 0
-351 -446 268 0
-351 446 264 0
352 446 -271 0
-352 -446 0
-352 271 0
353 -445 354 0
-353 445 0
-353 -354 0
354 -446 -261 0
354 446 -279 0
-354 446 279 0
-354 -446 261 0
-355 445 -446 276 0
-355 445 446 285 0
355 -445 0
355 -446 -276 0
355 446 -285 0
356 -444 -357 0
356 444 -361 0
356 444 -360 0
-356 -444 357 0
-356 444 360 361 0
357 445 -358 0
357 -445 -359 0
-357 -445 359 0
-357 445 358 0
358 446 -294 0
358 -446 -298 0
-358 -446 298 0
-358 446 294 0
359 446 -301 0
-359 -446 0
-359 301 0
360 445 446 -314 0
360 445 -446 -305 0
-360 -445 0
-360 -446 305 0
-360 446 314 0
361 -445 -362 0
-361 445 0
-361 362 0
362 -446 -291 0
362 446 -308 0
-362 446 308 0
-362 -446 291 0
363 480 228 -364 0
363 -480 228 -371 0
-363 -228 0
-363 -480 371 0
-363 480 364 0
364 -444 -365 0
364 444 -369 0
364 444 -368 0
-364 -444 365 0
-364 444 368 369 0
365 445 -366 0
365 -445 -367 0
-365 -445 367 0
-365 445 366 0
366 446 -322 0
366 -446 -324 0
-366 -446 324 0
-366 446 322 0
367 446 -325 0
-367 -446 0
-367 325 0
368 445 446 -332 0
368 445 -446 -328 0
-368 -445 0
-368 -446 328 0
-368 446 332 0
369 -445 -370 0
-369 445 0
-369 370 0
370 -446 -321 0
370 446 -329 0
-370 446 329 0
-370 -446 321 0
-371 -444 375 0
-371 444 372 0
371 444 -372 0
371 -444 -375 0
372 445 -373 0
372 -445 -374 0
-372 -445 374 0
-372 445 373 0
373 -446 -342 0
373 446 -345 0
-373 446 345 0
-373 -446 342 0
374 -446 -336 0
374 446 -343 0
-374 446 343 0
-374 -446 336 0
375 445 -376 0
-375 -445 0
-375 376 0
376 446 -337 0
376 -446 -339 0
-376 -446 339 0
-376 446 337 0
-377 478 -479 385 0
-377 478 479 378 0
377 -478 0
377 -479 -385 0
377 479 -378 0
378 480 228 -379 0
378 -480 228 -382 0
-378 -228 0
-378 -480 382 0
-378 480 379 0
-379 -444 381 0
-379 444 380 0
379 444 -380 0
379 -444 -381 0
380 -445 -260 0
380 445 -275 0
-380 445 275 0
-380 -445 260 0
381 445 -267 0
-381 -445 0
-381 267 0
-382 -444 384 0
-382 444 383 0
382 444 -383 0
382 -444 -384 0
383 -445 -290 0
383 445 -304 0
-383 445 304 0
-383 -445 290 0
384 445 -297 0
-384 -445 0
-384 297 0
385 480 228 -386 0
385 -480 228 -389 0
-385 -228 0
-385 -480 389 0
-385 480 386 0
-386 -444 388 0
-386 444 387 0
386 444 -387 0
386 -444 -388 0
387 -445 -320 0
387 445 -327 0
-387 445 327 0
-387 -445 320 0
388 445 -323 0
-388 -445 0
-388 323 0
-389 -444 391 0
-389 444 390 0
389 444 -390 0
389 -444 -391 0
390 -445 -335 0
390 445 -341 0
-390 445 341 0
-390 -445 335 0
391 445 -338 0
-391 -445 0
-391 338 0
392 -478 -479 400 0
392 -478 479 393 0
-392 478 0
-392 -479 -400 0
-392 479 -393 0
393 -480 -397 0
393 480 228 -394 0
-393 -480 397 0
-393 480 -228 0
-393 480 394 0
-394 -444 396 0
-394 444 395 0
394 444 -395 0
394 -444 -396 0
395 -445 -351 0
395 445 -354 0
-395 445 354 0
-395 -445 351 0
396 445 -352 0
-396 -445 0
-396 352 0
397 -444 228 -399 0
397 444 228 -398 0
-397 -228 0
-397 -444 399 0
-397 444 398 0
398 -445 -358 0
398 445 -362 0
-398 445 362 0
-398 -445 358 0
399 445 -359 0
-399 -445 0
-399 359 0
400 -480 -403 0
400 480 -401 402 0
-400 480 401 0
-400 -480 403 0
-400 480 -402 0
-401 444 -445 366 0
-401 444 445 370 0
401 -444 0
401 -445 -366 0
401 445 -370 0
-402 444 228 0
-402 445 228 -367 0
402 -228 0
402 -444 367 0
402 -444 -445 0
403 445 -374 404 0
403 -445 -376 404 0
-403 -404 0
-403 -445 376 0
-403 445 374 0
-404 444 228 0
404 -444 0
404 -228 0
405 -477 -412 0
405 477 -406 409 0
-405 477 406 0
-405 -477 412 0
-405 477 -409 0
-406 478 -479 408 0
-406 478 479 407 0
406 -478 0
406 -479 -408 0
406 479 -407 0
407 480 -259 404 0
407 -480 -289 404 0
-407 -404 0
-407 -480 289 0
-407 480 259 0
408 480 -319 404 0
408 -480 -334 404 0
-408 -404 0
-408 -480 334 0
-408 480 319 0
409 -478 -479 411 0
409 -478 479 410 0
-409 478 0
-409 -479 -411 0
-409 479 -410 0
410 480 -350 404 0
410 -480 -357 404 0
-410 -404 0
-410 -480 357 0
-410 480 350 0
411 480 -365 404 0
411 -480 -375 404 0
-411 -404 0
-411 -480 375 0
-411 480 365 0
412 478 -413 0
412 -478 479 -416 0
-412 -478 -479 0
-412 478 413 0
-412 -478 416 0
413 479 -414 0
413 -479 -415 0
-413 -479 415 0
-413 479 414 0
414 480 -381 404 0
414 -480 -384 404 0
-414 -404 0
-414 -480 384 0
-414 480 381 0
415 480 -388 404 0
415 -480 -391 404 0
-415 -404 0
-415 -480 391 0
-415 480 388 0
416 480 -396 404 0
416 -480 -399 404 0
-416 -404 0
-416 -480 399 0
-416 480 396 0
-481 0
2 0

